
Gurobi 11.0.0 (linux64) logging started Thu Dec  5 15:06:06 2024

Set parameter LogFile to value "gurobi.log"
Set parameter InfUnbdInfo to value 1
Gurobi Optimizer version 11.0.0 build v11.0.0rc2 (linux64 - "Ubuntu 22.04.4 LTS")

CPU model: AMD EPYC 7V13 64-Core Processor, instruction set [SSE2|AVX|AVX2]
Thread count: 128 physical cores, 128 logical processors, using up to 32 threads

Optimize a model with 62 rows, 200 columns and 169 nonzeros
Model fingerprint: 0x09193bd6
Model has 109 quadratic constraints
Model has 19 general constraints
Variable types: 41 continuous, 159 integer (0 binary)
Coefficient statistics:
  Matrix range     [1e+00, 2e+01]
  QMatrix range    [1e+00, 4e+02]
  QLMatrix range   [1e+00, 1e+00]
  Objective range  [1e+00, 1e+00]
  Bounds range     [1e+00, 2e+06]
  RHS range        [1e+00, 2e+06]
  QRHS range       [1e+03, 9e+03]
Using branch priorities (all 0).
Presolve added 42 rows and 85 columns
Presolve time: 0.01s
Presolved: 545 rows, 502 columns, 2497 nonzeros
Presolved model has 120 SOS constraint(s)
Presolved model has 39 bilinear constraint(s)
Warning: Model contains variables with very large bounds participating
         in product terms.
         Presolve was not able to compute smaller bounds for these variables.
         Consider bounding these variables or reformulating the model.


Solving non-convex MIQCP

Variable types: 132 continuous, 370 integer (98 binary)

Root relaxation: objective 7.716579e+01, 153 iterations, 0.00 seconds (0.00 work units)

    Nodes    |    Current Node    |     Objective Bounds      |     Work
 Expl Unexpl |  Obj  Depth IntInf | Incumbent    BestBd   Gap | It/Node Time

     0     0   77.16579    0   86          -   77.16579      -     -    0s
     0     0   77.16579    0   76          -   77.16579      -     -    0s
H    0     0                    245693.06250   77.16579   100%     -    0s
     0     0  131.59153    0   93 245693.063  131.59153   100%     -    0s
     0     0  131.59153    0   92 245693.063  131.59153   100%     -    0s
     0     0  158.48570    0   99 245693.063  158.48570   100%     -    0s
     0     0  158.48570    0   44 245693.063  158.48570   100%     -    1s
     0     0  158.48570    0   44 245693.063  158.48570   100%     -    1s
     0     0  185.11256    0   41 245693.063  185.11256   100%     -    1s
     0     0  185.19542    0   66 245693.063  185.19542   100%     -    1s
     0     0  211.78027    0   69 245693.063  211.78027   100%     -    1s
H    0     0                    244477.04708  211.80734   100%     -    1s
     0     0  211.80734    0   72 244477.047  211.80734   100%     -    1s
     0     0  238.30090    0   79 244477.047  238.30090   100%     -    1s
H    0     0                    111612.40773  238.30924   100%     -    1s
     0     0  238.30924    0   85 111612.408  238.30924   100%     -    1s
     0     0  264.73998    0   87 111612.408  264.73998   100%     -    1s
     0     0  264.74024    0   86 111612.408  264.74024   100%     -    1s
     0     0  264.95850    0   72 111612.408  264.95850   100%     -    1s
     0     0  291.80261    0   80 111612.408  291.80261   100%     -    1s
     0     0  291.88331    0   83 111612.408  291.88331   100%     -    1s
     0     0  318.53934    0   93 111612.408  318.53934   100%     -    1s
     0     0  318.54942    0   93 111612.408  318.54942   100%     -    2s
     0     0  390.22540    0   89 111612.408  390.22540   100%     -    2s
     0     0  969.81416    0   90 111612.408  969.81416  99.1%     -    2s
     0     0 2326.88835    0   91 111612.408 2326.88835  97.9%     -    2s
     0     0 5895.43482    0   93 111612.408 5895.43482  94.7%     -    2s
     0     0 8303.39062    0   66 111612.408 8303.39062  92.6%     -    2s
H    0     0                    101486.56250 8303.39062  91.8%     -    2s
     0     0 9654.61466    0   72 101486.562 9654.61466  90.5%     -    2s
     0     0 9654.61466    0   73 101486.562 9654.61466  90.5%     -    2s
     0     0 9654.61466    0   76 101486.562 9654.61466  90.5%     -    2s
     0     0 9654.61466    0   69 101486.562 9654.61466  90.5%     -    2s
H    0     0                    97383.062500 9654.61466  90.1%     -    2s
     0     0 9654.61466    0   74 97383.0625 9654.61466  90.1%     -    2s
     0     0 9654.61466    0   78 97383.0625 9654.61466  90.1%     -    2s
     0     0 9654.61466    0   74 97383.0625 9654.61466  90.1%     -    3s
     0     2 9654.61466    0   72 97383.0625 9654.61466  90.1%     -    3s
H   30    48                    96931.062500 9654.61466  90.0%  40.9    3s
H   38    48                    96505.250000 9654.61466  90.0%  36.1    3s
H   91   103                    94771.226874 9654.61466  89.8%  27.9    4s
H   95   103                    90977.631463 9654.61466  89.4%  28.3    4s
H   95   103                    88421.243855 9654.61466  89.1%  28.3    4s
H  105   103                    85472.625000 9654.61466  88.7%  27.4    4s
H  164   154                    84502.625000 9654.61466  88.6%  24.2    4s
*  359   288              14    13438.904574 9654.61466  28.2%  17.4    4s
H  693   301                    12875.624698 9654.61466  25.0%  13.7    4s
  1274   516 11960.2115   17   63 12875.6247 9654.61466  25.0%  12.1    5s
* 1887   649              31    12839.702709 9654.61466  24.8%  12.2    5s
H 2069   684                    12695.773345 9654.61466  24.0%  12.2    5s
H 2431   684                    12464.496842 9654.61466  22.5%  12.5    5s
* 3111   610              37    12367.862014 9654.61466  21.9%  12.7    5s
* 3362   610              37    12070.328103 9654.61466  20.0%  12.7    5s
* 3807   518              31    12047.852352 9654.61466  19.9%  12.5    6s
* 4293   334              35    12012.417122 9654.61466  19.6%  12.1    6s
* 4415   334              34    11983.177394 9654.61466  19.4%  12.0    6s
* 4576   334              36    11928.169216 9654.61466  19.1%  11.8    6s
* 4579   334              35    11899.725061 9654.61466  18.9%  11.8    6s
H 4584   334                    11801.475061 9654.61466  18.2%  11.8    6s
* 4711   334              34    11687.675102 9654.61466  17.4%  11.7    6s
* 5047    12              37    11662.200861 10596.0970  9.14%  11.2    6s
* 5241    12              37    11660.742737 10596.0970  9.13%  10.8    6s

Cutting planes:
  Learned: 2
  Gomory: 13
  Cover: 3
  Implied bound: 70
  Clique: 4
  MIR: 45
  StrongCG: 2
  Flow cover: 4
  RLT: 56
  Relax-and-lift: 11
  PSD: 2

Explored 5384 nodes (58226 simplex iterations) in 7.03 seconds (0.29 work units)
Thread count was 32 (of 128 available processors)

Solution count 10: 11660.7 11662.2 11687.7 ... 12070.3

Optimal solution found (tolerance 1.00e-04)
Warning: max constraint violation (7.6333e-04) exceeds tolerance
Warning: max general constraint violation (7.6333e-04) exceeds tolerance
Best objective 1.166074273668e+04, best bound 1.166074273668e+04, gap 0.0000%
